23
 1 460 20
 2 110 5
 3 210 10
 4 80 4
 5 342 18
 6 108 6
 7 221 13
 8 64 4
 9 180 12
 10 266 19
 11 221 17
 12 48 4
 13 99 9
 14 140 14
 15 108 12
 16 64 8
 17 133 19
 18 54 9
 19 85 17
 20 52 13
 21 57 19
 22 32 16
 23 16 16
253